NAME          
ROWS
 N  OBJ
 L  c1
COLUMNS
    MARKER    'MARKER'                 'INTORG'
    x[1]      c1        1011
    x[1]      OBJ       -942
    x[2]      c1        848
    x[2]      OBJ       -786
    x[3]      c1        120
    x[3]      OBJ       -197
    x[4]      c1        42
    x[4]      OBJ       -85
    x[5]      c1        56
    x[5]      OBJ       -85
    x[6]      c1        526
    x[6]      OBJ       -577
    x[7]      c1        942
    x[7]      OBJ       -882
    x[8]      c1        351
    x[8]      OBJ       -355
    x[9]      c1        763
    x[9]      OBJ       -707
    x[10]     c1        557
    x[10]     OBJ       -651
RHS
    rhs       c1        2608
RANGES
BOUNDS
 BV bounds    x[1]
 BV bounds    x[2]
 BV bounds    x[3]
 BV bounds    x[4]
 BV bounds    x[5]
 BV bounds    x[6]
 BV bounds    x[7]
 BV bounds    x[8]
 BV bounds    x[9]
 BV bounds    x[10]
ENDATA
